RSW05
Position Depot: Center
Horizon for Depot: Small
Position of customers: Random
Distribution of the demand: Large
Width of time windows: Wide
Distribution of the service: Large

VEHICLE 
NUMBER 	 CAPACITY 
 6 	 	 431 
 
CUSTOMER
CUST NO. 	 XCOORD.  	 YCOORD. 	 DEMAND 	 READY TIME 	 DUE DATE 	 SERVICE TIME 
 0 	 	 500 	 	 500 	 	 0 	 	 0 	 	 1910 	 	 0 
  1 	 	 262 	 	 196 	 	 41 	 	 283 	 	 540 	 	 178 
  2 	 	 171 	 	 430 	 	 54 	 	 993 	 	 1322 	 	 177 
  3 	 	 742 	 	 132 	 	 12 	 	 367 	 	 689 	 	 189 
  4 	 	 984 	 	 286 	 	 74 	 	 1616 	 	 1910 	 	 158 
  5 	 	 840 	 	 435 	 	 3 	 	 118 	 	 474 	 	 165 
  6 	 	 141 	 	 145 	 	 53 	 	 116 	 	 555 	 	 164 
  7 	 	 938 	 	 767 	 	 64 	 	 1445 	 	 1910 	 	 192 
  8 	 	 45 	 	 396 	 	 14 	 	 1236 	 	 1586 	 	 152 
  9 	 	 474 	 	 110 	 	 84 	 	 881 	 	 1299 	 	 152 
  10 	 	 27 	 	 880 	 	 34 	 	 1114 	 	 1345 	 	 137 
  11 	 	 265 	 	 333 	 	 65 	 	 46 	 	 317 	 	 169 
  12 	 	 56 	 	 223 	 	 41 	 	 1393 	 	 1642 	 	 120 
  13 	 	 309 	 	 761 	 	 53 	 	 927 	 	 1200 	 	 110 
  14 	 	 998 	 	 536 	 	 64 	 	 1444 	 	 1910 	 	 108 
  15 	 	 436 	 	 374 	 	 81 	 	 1559 	 	 1835 	 	 200 
  16 	 	 471 	 	 415 	 	 79 	 	 499 	 	 843 	 	 163 
  17 	 	 997 	 	 568 	 	 10 	 	 950 	 	 1219 	 	 102 
  18 	 	 647 	 	 90 	 	 27 	 	 1053 	 	 1439 	 	 161 
  19 	 	 527 	 	 151 	 	 99 	 	 1608 	 	 1897 	 	 189 
  20 	 	 135 	 	 434 	 	 98 	 	 170 	 	 408 	 	 145 
  21 	 	 653 	 	 758 	 	 90 	 	 1457 	 	 1816 	 	 187 
  22 	 	 257 	 	 740 	 	 47 	 	 578 	 	 936 	 	 152 
  23 	 	 408 	 	 487 	 	 57 	 	 571 	 	 937 	 	 179 
  24 	 	 717 	 	 422 	 	 20 	 	 1502 	 	 1769 	 	 189 
  25 	 	 489 	 	 256 	 	 82 	 	 1581 	 	 1910 	 	 154 
  26 	 	 983 	 	 591 	 	 61 	 	 1127 	 	 1351 	 	 137 
  27 	 	 543 	 	 824 	 	 64 	 	 478 	 	 931 	 	 116 
  28 	 	 457 	 	 148 	 	 83 	 	 1203 	 	 1645 	 	 119 
  29 	 	 897 	 	 238 	 	 43 	 	 1479 	 	 1714 	 	 187 
  30 	 	 566 	 	 576 	 	 76 	 	 603 	 	 890 	 	 153 
  31 	 	 640 	 	 419 	 	 39 	 	 395 	 	 708 	 	 178 
  32 	 	 10 	 	 876 	 	 84 	 	 790 	 	 1173 	 	 110 
  33 	 	 851 	 	 269 	 	 63 	 	 1272 	 	 1673 	 	 158 
  34 	 	 837 	 	 46 	 	 55 	 	 293 	 	 742 	 	 167 
  35 	 	 153 	 	 329 	 	 19 	 	 223 	 	 618 	 	 115 
  36 	 	 113 	 	 803 	 	 42 	 	 100 	 	 540 	 	 180 
  37 	 	 533 	 	 818 	 	 58 	 	 1441 	 	 1910 	 	 119 
  38 	 	 963 	 	 505 	 	 20 	 	 1627 	 	 1858 	 	 124 
  39 	 	 721 	 	 408 	 	 43 	 	 1152 	 	 1484 	 	 162 
  40 	 	 296 	 	 37 	 	 56 	 	 247 	 	 556 	 	 103 
  41 	 	 971 	 	 589 	 	 41 	 	 653 	 	 1002 	 	 131 
  42 	 	 307 	 	 846 	 	 56 	 	 503 	 	 929 	 	 141 
  43 	 	 843 	 	 697 	 	 96 	 	 437 	 	 698 	 	 186 
  44 	 	 380 	 	 34 	 	 37 	 	 166 	 	 666 	 	 113 
  45 	 	 617 	 	 834 	 	 94 	 	 425 	 	 633 	 	 133 
  46 	 	 981 	 	 987 	 	 43 	 	 348 	 	 752 	 	 158 
  47 	 	 301 	 	 559 	 	 36 	 	 626 	 	 899 	 	 163 
  48 	 	 59 	 	 106 	 	 49 	 	 1483 	 	 1910 	 	 140 
  49 	 	 911 	 	 7 	 	 60 	 	 1128 	 	 1448 	 	 117 
  50 	 	 321 	 	 153 	 	 27 	 	 849 	 	 1136 	 	 136 
 